Version identifier: 22.1.1.0 | 2022-11-28 | 9160aff4d
CPXPARAM_ClockType                               1
CPXPARAM_Read_DataCheck                          1
CPXPARAM_Threads                                 1
CPXPARAM_TimeLimit                               7200
CPXPARAM_MIP_Tolerances_AbsMIPGap                0
CPXPARAM_MIP_Tolerances_MIPGap                   0
CPXPARAM_MIP_Tolerances_Integrality              0
Found incumbent of value 0.000000 after 0.01 sec. (0.90 ticks)
Tried aggregator 2 times.
MIP Presolve eliminated 130 rows and 1 columns.
MIP Presolve modified 510 coefficients.
Aggregator did 254 substitutions.
Reduced MIP has 12769 rows, 761 columns, and 38684 nonzeros.
Reduced MIP has 761 binaries, 0 generals, 0 SOSs, and 0 indicators.
Presolve time = 0.04 sec. (28.48 ticks)
Probing time = 0.00 sec. (2.78 ticks)
Tried aggregator 1 time.
Detecting symmetries...
MIP Presolve eliminated 65 rows and 4 columns.
Reduced MIP has 12704 rows, 757 columns, and 38487 nonzeros.
Reduced MIP has 757 binaries, 0 generals, 0 SOSs, and 0 indicators.
Presolve time = 0.05 sec. (32.12 ticks)
Probing time = 0.00 sec. (2.75 ticks)
Clique table members: 380.
MIP emphasis: balance optimality and feasibility.
MIP search method: dynamic search.
Parallel mode: none, using 1 thread.
Root relaxation solution time = 0.07 sec. (50.69 ticks)

        Nodes                                         Cuts/
   Node  Left     Objective  IInf  Best Integer    Best Bound    ItCnt     Gap

*     0+    0                            0.0000      127.0000              --- 
      0     0      127.0000    92        0.0000      127.0000      261     --- 
*     0+    0                          127.0000      127.0000             0.00%
      0     0        cutoff            127.0000      127.0000      261    0.00%
Elapsed time = 0.22 sec. (155.18 ticks, tree = 0.01 MB, solutions = 2)

Root node processing (before b&c):
  Real time             =    0.22 sec. (155.28 ticks)
Sequential b&c:
  Real time             =    0.00 sec. (0.00 ticks)
                          ------------
Total (root+branch&cut) =    0.22 sec. (155.28 ticks)
Solution is feasible.

---------------------
@@@ MIP_optimal
>>> Benchmark mc2024_track1_175.cnf k 2 OPT 127 TimeCost 0.8323357105255127 TimeSolve 0.22258448600769043 TimeRead 0.011362791061401367 TimeTrans 0.5983884334564209
